100
1000
697
693
692
684
682
673
656
653
652
649
638
636
631
627
619
616
600
595
584
582
572
571
571
568
568
564
564
552
547
544
539
539
537
533
521
519
517
515
515
492
485
484
479
456
453
450
446
445
443
423
418
410
406
406
405
399
395
386
383
374
348
347
335
330
322
316
302
293
286
284
282
273
262
252
249
245
241
231
221
209
207
205
195
194
188
182
180
170
169
153
150
149
137
134
130
123
116
112
106
105
